c PyNETGEN v1.0.0
c $ pip install pynetgen
c
c  NETGEN flow network generation algorithm
c  Problem input parameters
c  -------------------------------------
c   Random seed:          26
c   Number of nodes:      28
c   Source nodes:         9
c   Sink nodes:           1
c   Number of arcs:       39
c   Minimum arc cost:     10
c   Maximum arc cost:     99
c   Total supply:         1000
c   Transshipment -
c     Sources:            0
c     Sinks:              0
c   Skeleton arcs -
c     With max cost:      0
c     Capacitated:        100
c   Minimum arc capacity: 100
c   Maximum arc capacity: 1000
c
c  *** Minimum cost flow ***
c
p min 28 39
n 1 -332
n 2 93
n 3 143
n 4 165
n 5 93
n 6 175
n 7 141
n 8 45
n 9 58
n 28 -581
a 1 17 0 100 82
a 10 16 0 100 29
a 16 1 0 100 35
a 16 23 0 100 31
a 17 10 0 100 44
a 23 28 0 100 47
a 2 26 0 100 63
a 21 28 0 100 58
a 21 1 0 100 38
a 26 21 0 100 46
a 3 22 0 143 88
a 15 28 0 143 41
a 18 15 0 143 82
a 18 1 0 143 26
a 22 18 0 143 89
a 4 20 0 165 30
a 20 28 0 165 78
a 20 1 0 165 61
a 5 14 0 100 88
a 14 28 0 100 11
a 14 1 0 100 46
a 6 11 0 175 38
a 11 28 0 175 32
a 11 1 0 175 28
a 7 27 0 141 57
a 12 28 0 141 28
a 12 1 0 141 25
a 27 12 0 141 10
a 8 13 0 100 50
a 13 19 0 100 47
a 13 28 0 937 38
a 19 28 0 100 35
a 19 1 0 100 62
a 9 25 0 100 19
a 9 19 0 332 60
a 24 28 0 100 11
a 24 1 0 100 69
a 25 24 0 100 63
a 25 26 0 801 43
